NAME: random-13-32707
TYPE: TSP
COMMENT: size=13 seed=32707
DIMENSION: 28
EDGE_WEIGHT_TYPE: EUC_2D
NODE_COORD_SECTION
+0 549 649
-0 549 649
+1 535 137
-1 522 405
+2 162 826
-2 759 419
+3 678 584
-3 853 993
+4 892 6
-4 500 342
+5 83 569
-5 102 142
+6 195 233
-6 464 157
+7 830 194
-7 448 919
+8 136 625
-8 145 986
+9 76 210
-9 142 444
+10 556 112
-10 359 472
+11 972 796
-11 470 745
+12 565 768
-12 64 796
+13 484 231
-13 26 515
PRECEDENCE_SECTION
+0 -0
+1 -1
+2 -2
+3 -3
+4 -4
+5 -5
+6 -6
+7 -7
+8 -8
+9 -9
+10 -10
+11 -11
+12 -12
+13 -13
EOF
